p cnf 85 0
c Tipo 0:
32 -37 0
-32 37 0
c Tipo 0:
1 -7 0
-1 7 0
c Tipo 1:
c Tipo 2:
1 -61 0
-1 61 0
c Tipo 3:
86 0
-86 32 87 0
-86 6 91 0
-87 33 88 0
-87 7 92 0
-88 34 89 0
-88 8 93 0
-88 33 87 0
-89 9 94 0
-89 34 88 0
-90 10 95 0
-90 35 89 0
-91 38 92 0
-91 11 96 0
-92 39 93 0
-92 12 97 0
-93 40 94 0
-93 13 98 0
-93 39 92 0
-94 14 99 0
-94 40 93 0
-95 15 100 0
-95 41 94 0
-96 11 91 0
-96 44 97 0
-96 16 101 0
-97 12 92 0
-97 45 98 0
-97 17 102 0
-98 13 93 0
-98 46 99 0
-98 18 103 0
-98 45 97 0
-99 14 94 0
-99 19 104 0
-99 46 98 0
-100 15 95 0
-100 20 105 0
-100 47 99 0
-101 16 96 0
-101 50 102 0
-102 17 97 0
-102 51 103 0
-103 18 98 0
-103 52 104 0
-103 51 102 0
-104 19 99 0
-104 52 103 0
-105 20 100 0
-105 53 104 0
-106 21 101 0
-106 56 107 0
-107 22 102 0
-107 57 108 0
-108 23 103 0
-108 58 109 0
-108 57 107 0
-109 24 104 0
-109 58 108 0
-110 25 105 0
-110 59 109 0
c Tipo 4:
-61 -61 86 0
-61 -66 87 0
-61 -71 88 0
-61 -76 89 0
-61 -81 90 0
-61 -62 91 0
-61 -67 92 0
-61 -72 93 0
-61 -77 94 0
-61 -82 95 0
-61 -63 96 0
-61 -68 97 0
-61 -73 98 0
-61 -78 99 0
-61 -83 100 0
-61 -64 101 0
-61 -69 102 0
-61 -74 103 0
-61 -79 104 0
-61 -84 105 0
-61 -65 106 0
-61 -70 107 0
-61 -75 108 0
-61 -80 109 0
-61 -85 110 0
c Tipo 0:
33 -38 0
-33 38 0
c Tipo 0:
2 -8 0
-2 8 0
c Tipo 1:
c Tipo 2:
2 -66 0
-2 66 0
c Tipo 3:
112 0
-111 32 112 0
-111 6 116 0
-112 33 113 0
-112 7 117 0
-113 34 114 0
-113 8 118 0
-113 33 112 0
-114 9 119 0
-114 34 113 0
-115 10 120 0
-115 35 114 0
-116 38 117 0
-116 11 121 0
-117 39 118 0
-117 12 122 0
-118 40 119 0
-118 13 123 0
-118 39 117 0
-119 14 124 0
-119 40 118 0
-120 15 125 0
-120 41 119 0
-121 11 116 0
-121 44 122 0
-121 16 126 0
-122 12 117 0
-122 45 123 0
-122 17 127 0
-123 13 118 0
-123 46 124 0
-123 18 128 0
-123 45 122 0
-124 14 119 0
-124 19 129 0
-124 46 123 0
-125 15 120 0
-125 20 130 0
-125 47 124 0
-126 16 121 0
-126 50 127 0
-127 17 122 0
-127 51 128 0
-128 18 123 0
-128 52 129 0
-128 51 127 0
-129 19 124 0
-129 52 128 0
-130 20 125 0
-130 53 129 0
-131 21 126 0
-131 56 132 0
-132 22 127 0
-132 57 133 0
-133 23 128 0
-133 58 134 0
-133 57 132 0
-134 24 129 0
-134 58 133 0
-135 25 130 0
-135 59 134 0
c Tipo 4:
-66 -61 111 0
-66 -66 112 0
-66 -71 113 0
-66 -76 114 0
-66 -81 115 0
-66 -62 116 0
-66 -67 117 0
-66 -72 118 0
-66 -77 119 0
-66 -82 120 0
-66 -63 121 0
-66 -68 122 0
-66 -73 123 0
-66 -78 124 0
-66 -83 125 0
-66 -64 126 0
-66 -69 127 0
-66 -74 128 0
-66 -79 129 0
-66 -84 130 0
-66 -65 131 0
-66 -70 132 0
-66 -75 133 0
-66 -80 134 0
-66 -85 135 0
c Tipo 0:
34 -39 0
-34 39 0
c Tipo 0:
3 -9 0
-3 9 0
c Tipo 1:
3 8 0
3 34 0
3 33 0
8 3 0
8 34 0
3 33 0
34 3 0
34 8 0
34 33 0
33 3 0
33 8 0
33 34 0
c Tipo 2:
3 -71 0
-3 71 0
c Tipo 3:
138 0
-136 32 137 0
-136 6 141 0
-137 33 138 0
-137 7 142 0
-138 34 139 0
-138 8 143 0
-138 33 137 0
-139 9 144 0
-139 34 138 0
-140 10 145 0
-140 35 139 0
-141 38 142 0
-141 11 146 0
-142 39 143 0
-142 12 147 0
-143 40 144 0
-143 13 148 0
-143 39 142 0
-144 14 149 0
-144 40 143 0
-145 15 150 0
-145 41 144 0
-146 11 141 0
-146 44 147 0
-146 16 151 0
-147 12 142 0
-147 45 148 0
-147 17 152 0
-148 13 143 0
-148 46 149 0
-148 18 153 0
-148 45 147 0
-149 14 144 0
-149 19 154 0
-149 46 148 0
-150 15 145 0
-150 20 155 0
-150 47 149 0
-151 16 146 0
-151 50 152 0
-152 17 147 0
-152 51 153 0
-153 18 148 0
-153 52 154 0
-153 51 152 0
-154 19 149 0
-154 52 153 0
-155 20 150 0
-155 53 154 0
-156 21 151 0
-156 56 157 0
-157 22 152 0
-157 57 158 0
-158 23 153 0
-158 58 159 0
-158 57 157 0
-159 24 154 0
-159 58 158 0
-160 25 155 0
-160 59 159 0
c Tipo 4:
-71 -61 136 0
-71 -66 137 0
-71 -71 138 0
-71 -76 139 0
-71 -81 140 0
-71 -62 141 0
-71 -67 142 0
-71 -72 143 0
-71 -77 144 0
-71 -82 145 0
-71 -63 146 0
-71 -68 147 0
-71 -73 148 0
-71 -78 149 0
-71 -83 150 0
-71 -64 151 0
-71 -69 152 0
-71 -74 153 0
-71 -79 154 0
-71 -84 155 0
-71 -65 156 0
-71 -70 157 0
-71 -75 158 0
-71 -80 159 0
-71 -85 160 0
c Tipo 0:
35 -40 0
-35 40 0
c Tipo 0:
4 -10 0
-4 10 0
c Tipo 1:
4 35 9 0
4 35 34 0
4 9 35 0
4 9 34 0
4 34 9 0
4 34 35 0
35 9 4 0
35 9 34 0
35 34 4 0
35 34 9 0
9 34 4 0
9 34 35 0
c Tipo 2:
4 -76 0
-4 76 0
c Tipo 3:
164 0
-161 32 162 0
-161 6 166 0
-162 33 163 0
-162 7 167 0
-163 34 164 0
-163 8 168 0
-163 33 162 0
-164 9 169 0
-164 34 163 0
-165 10 170 0
-165 35 164 0
-166 38 167 0
-166 11 171 0
-167 39 168 0
-167 12 172 0
-168 40 169 0
-168 13 173 0
-168 39 167 0
-169 14 174 0
-169 40 168 0
-170 15 175 0
-170 41 169 0
-171 11 166 0
-171 44 172 0
-171 16 176 0
-172 12 167 0
-172 45 173 0
-172 17 177 0
-173 13 168 0
-173 46 174 0
-173 18 178 0
-173 45 172 0
-174 14 169 0
-174 19 179 0
-174 46 173 0
-175 15 170 0
-175 20 180 0
-175 47 174 0
-176 16 171 0
-176 50 177 0
-177 17 172 0
-177 51 178 0
-178 18 173 0
-178 52 179 0
-178 51 177 0
-179 19 174 0
-179 52 178 0
-180 20 175 0
-180 53 179 0
-181 21 176 0
-181 56 182 0
-182 22 177 0
-182 57 183 0
-183 23 178 0
-183 58 184 0
-183 57 182 0
-184 24 179 0
-184 58 183 0
-185 25 180 0
-185 59 184 0
c Tipo 4:
-76 -61 161 0
-76 -66 162 0
-76 -71 163 0
-76 -76 164 0
-76 -81 165 0
-76 -62 166 0
-76 -67 167 0
-76 -72 168 0
-76 -77 169 0
-76 -82 170 0
-76 -63 171 0
-76 -68 172 0
-76 -73 173 0
-76 -78 174 0
-76 -83 175 0
-76 -64 176 0
-76 -69 177 0
-76 -74 178 0
-76 -79 179 0
-76 -84 180 0
-76 -65 181 0
-76 -70 182 0
-76 -75 183 0
-76 -80 184 0
-76 -85 185 0
c Tipo 0:
36 -41 0
-36 41 0
c Tipo 1:
c Tipo 2:
5 -81 0
-5 81 0
c Tipo 3:
190 0
-186 32 187 0
-186 6 191 0
-187 33 188 0
-187 7 192 0
-188 34 189 0
-188 8 193 0
-188 33 187 0
-189 9 194 0
-189 34 188 0
-190 10 195 0
-190 35 189 0
-191 38 192 0
-191 11 196 0
-192 39 193 0
-192 12 197 0
-193 40 194 0
-193 13 198 0
-193 39 192 0
-194 14 199 0
-194 40 193 0
-195 15 200 0
-195 41 194 0
-196 11 191 0
-196 44 197 0
-196 16 201 0
-197 12 192 0
-197 45 198 0
-197 17 202 0
-198 13 193 0
-198 46 199 0
-198 18 203 0
-198 45 197 0
-199 14 194 0
-199 19 204 0
-199 46 198 0
-200 15 195 0
-200 20 205 0
-200 47 199 0
-201 16 196 0
-201 50 202 0
-202 17 197 0
-202 51 203 0
-203 18 198 0
-203 52 204 0
-203 51 202 0
-204 19 199 0
-204 52 203 0
-205 20 200 0
-205 53 204 0
-206 21 201 0
-206 56 207 0
-207 22 202 0
-207 57 208 0
-208 23 203 0
-208 58 209 0
-208 57 207 0
-209 24 204 0
-209 58 208 0
-210 25 205 0
-210 59 209 0
c Tipo 4:
-81 -61 186 0
-81 -66 187 0
-81 -71 188 0
-81 -76 189 0
-81 -81 190 0
-81 -62 191 0
-81 -67 192 0
-81 -72 193 0
-81 -77 194 0
-81 -82 195 0
-81 -63 196 0
-81 -68 197 0
-81 -73 198 0
-81 -78 199 0
-81 -83 200 0
-81 -64 201 0
-81 -69 202 0
-81 -74 203 0
-81 -79 204 0
-81 -84 205 0
-81 -65 206 0
-81 -70 207 0
-81 -75 208 0
-81 -80 209 0
-81 -85 210 0
c Tipo 0:
38 -43 0
-38 43 0
c Tipo 0:
6 -12 0
-6 12 0
c Tipo 1:
6 38 11 0
6 38 37 0
6 11 38 0
6 11 37 0
6 37 11 0
6 37 38 0
38 11 6 0
38 11 37 0
38 37 6 0
38 37 11 0
11 37 6 0
11 37 38 0
c Tipo 2:
37 62 0
-37 -62 0
c Tipo 3:
216 0
-211 32 212 0
-211 6 216 0
-212 33 213 0
-212 7 217 0
-213 34 214 0
-213 8 218 0
-213 33 212 0
-214 9 219 0
-214 34 213 0
-215 10 220 0
-215 35 214 0
-216 38 217 0
-216 11 221 0
-217 39 218 0
-217 12 222 0
-218 40 219 0
-218 13 223 0
-218 39 217 0
-219 14 224 0
-219 40 218 0
-220 15 225 0
-220 41 219 0
-221 11 216 0
-221 44 222 0
-221 16 226 0
-222 12 217 0
-222 45 223 0
-222 17 227 0
-223 13 218 0
-223 46 224 0
-223 18 228 0
-223 45 222 0
-224 14 219 0
-224 19 229 0
-224 46 223 0
-225 15 220 0
-225 20 230 0
-225 47 224 0
-226 16 221 0
-226 50 227 0
-227 17 222 0
-227 51 228 0
-228 18 223 0
-228 52 229 0
-228 51 227 0
-229 19 224 0
-229 52 228 0
-230 20 225 0
-230 53 229 0
-231 21 226 0
-231 56 232 0
-232 22 227 0
-232 57 233 0
-233 23 228 0
-233 58 234 0
-233 57 232 0
-234 24 229 0
-234 58 233 0
-235 25 230 0
-235 59 234 0
c Tipo 4:
-62 -61 211 0
-62 -66 212 0
-62 -71 213 0
-62 -76 214 0
-62 -81 215 0
-62 -62 216 0
-62 -67 217 0
-62 -72 218 0
-62 -77 219 0
-62 -82 220 0
-62 -63 221 0
-62 -68 222 0
-62 -73 223 0
-62 -78 224 0
-62 -83 225 0
-62 -64 226 0
-62 -69 227 0
-62 -74 228 0
-62 -79 229 0
-62 -84 230 0
-62 -65 231 0
-62 -70 232 0
-62 -75 233 0
-62 -80 234 0
-62 -85 235 0
c Tipo 0:
39 -44 0
-39 44 0
c Tipo 0:
7 -13 0
-7 13 0
c Tipo 1:
7 39 12 0
7 39 38 0
7 12 39 0
7 12 38 0
7 38 12 0
7 38 39 0
39 12 7 0
39 12 38 0
39 38 7 0
39 38 12 0
12 38 7 0
12 38 39 0
c Tipo 2:
67 7 -72 0
67 12 -62 0
67 39 -68 0
67 38 -66 0
-67 -7 0
-67 72 0
-67 -12 0
-67 62 0
-67 -39 0
-67 72 0
-67 -38 0
-67 66 0
-67 -7 72 0
-67 -12 62 0
-67 -39 68 0
-67 -38 66 0
67 7 0
67 -72 0
67 12 0
67 -62 0
67 39 0
67 -72 0
67 38 0
67 -66 0
c Tipo 3:
242 0
-236 32 237 0
-236 6 241 0
-237 33 238 0
-237 7 242 0
-238 34 239 0
-238 8 243 0
-238 33 237 0
-239 9 244 0
-239 34 238 0
-240 10 245 0
-240 35 239 0
-241 38 242 0
-241 11 246 0
-242 39 243 0
-242 12 247 0
-243 40 244 0
-243 13 248 0
-243 39 242 0
-244 14 249 0
-244 40 243 0
-245 15 250 0
-245 41 244 0
-246 11 241 0
-246 44 247 0
-246 16 251 0
-247 12 242 0
-247 45 248 0
-247 17 252 0
-248 13 243 0
-248 46 249 0
-248 18 253 0
-248 45 247 0
-249 14 244 0
-249 19 254 0
-249 46 248 0
-250 15 245 0
-250 20 255 0
-250 47 249 0
-251 16 246 0
-251 50 252 0
-252 17 247 0
-252 51 253 0
-253 18 248 0
-253 52 254 0
-253 51 252 0
-254 19 249 0
-254 52 253 0
-255 20 250 0
-255 53 254 0
-256 21 251 0
-256 56 257 0
-257 22 252 0
-257 57 258 0
-258 23 253 0
-258 58 259 0
-258 57 257 0
-259 24 254 0
-259 58 258 0
-260 25 255 0
-260 59 259 0
c Tipo 4:
-67 -61 236 0
-67 -66 237 0
-67 -71 238 0
-67 -76 239 0
-67 -81 240 0
-67 -62 241 0
-67 -67 242 0
-67 -72 243 0
-67 -77 244 0
-67 -82 245 0
-67 -63 246 0
-67 -68 247 0
-67 -73 248 0
-67 -78 249 0
-67 -83 250 0
-67 -64 251 0
-67 -69 252 0
-67 -74 253 0
-67 -79 254 0
-67 -84 255 0
-67 -65 256 0
-67 -70 257 0
-67 -75 258 0
-67 -80 259 0
-67 -85 260 0
c Tipo 0:
40 -45 0
-40 45 0
c Tipo 0:
8 -14 0
-8 14 0
c Tipo 1:
8 40 13 0
8 40 39 0
8 13 40 0
8 13 39 0
8 39 13 0
8 39 40 0
40 13 8 0
40 13 39 0
40 39 8 0
40 39 13 0
13 39 8 0
13 39 40 0
c Tipo 2:
72 8 -77 0
72 13 -67 0
72 40 -73 0
72 39 -71 0
-72 -8 0
-72 77 0
-72 -13 0
-72 67 0
-72 -40 0
-72 77 0
-72 -39 0
-72 71 0
-72 -8 77 0
-72 -13 67 0
-72 -40 73 0
-72 -39 71 0
72 8 0
72 -77 0
72 13 0
72 -67 0
72 40 0
72 -77 0
72 39 0
72 -71 0
c Tipo 3:
268 0
-261 32 262 0
-261 6 266 0
-262 33 263 0
-262 7 267 0
-263 34 264 0
-263 8 268 0
-263 33 262 0
-264 9 269 0
-264 34 263 0
-265 10 270 0
-265 35 264 0
-266 38 267 0
-266 11 271 0
-267 39 268 0
-267 12 272 0
-268 40 269 0
-268 13 273 0
-268 39 267 0
-269 14 274 0
-269 40 268 0
-270 15 275 0
-270 41 269 0
-271 11 266 0
-271 44 272 0
-271 16 276 0
-272 12 267 0
-272 45 273 0
-272 17 277 0
-273 13 268 0
-273 46 274 0
-273 18 278 0
-273 45 272 0
-274 14 269 0
-274 19 279 0
-274 46 273 0
-275 15 270 0
-275 20 280 0
-275 47 274 0
-276 16 271 0
-276 50 277 0
-277 17 272 0
-277 51 278 0
-278 18 273 0
-278 52 279 0
-278 51 277 0
-279 19 274 0
-279 52 278 0
-280 20 275 0
-280 53 279 0
-281 21 276 0
-281 56 282 0
-282 22 277 0
-282 57 283 0
-283 23 278 0
-283 58 284 0
-283 57 282 0
-284 24 279 0
-284 58 283 0
-285 25 280 0
-285 59 284 0
c Tipo 4:
-72 -61 261 0
-72 -66 262 0
-72 -71 263 0
-72 -76 264 0
-72 -81 265 0
-72 -62 266 0
-72 -67 267 0
-72 -72 268 0
-72 -77 269 0
-72 -82 270 0
-72 -63 271 0
-72 -68 272 0
-72 -73 273 0
-72 -78 274 0
-72 -83 275 0
-72 -64 276 0
-72 -69 277 0
-72 -74 278 0
-72 -79 279 0
-72 -84 280 0
-72 -65 281 0
-72 -70 282 0
-72 -75 283 0
-72 -80 284 0
-72 -85 285 0
c Tipo 0:
41 -46 0
-41 46 0
c Tipo 0:
9 -15 0
-9 15 0
c Tipo 1:
c Tipo 2:
77 9 -82 0
77 14 -72 0
77 41 -78 0
77 40 -76 0
-77 -9 0
-77 82 0
-77 -14 0
-77 72 0
-77 -41 0
-77 82 0
-77 -40 0
-77 76 0
-77 -9 82 0
-77 -14 72 0
-77 -41 78 0
-77 -40 76 0
77 9 0
77 -82 0
77 14 0
77 -72 0
77 41 0
77 -82 0
77 40 0
77 -76 0
c Tipo 3:
294 0
-286 32 287 0
-286 6 291 0
-287 33 288 0
-287 7 292 0
-288 34 289 0
-288 8 293 0
-288 33 287 0
-289 9 294 0
-289 34 288 0
-290 10 295 0
-290 35 289 0
-291 38 292 0
-291 11 296 0
-292 39 293 0
-292 12 297 0
-293 40 294 0
-293 13 298 0
-293 39 292 0
-294 14 299 0
-294 40 293 0
-295 15 300 0
-295 41 294 0
-296 11 291 0
-296 44 297 0
-296 16 301 0
-297 12 292 0
-297 45 298 0
-297 17 302 0
-298 13 293 0
-298 46 299 0
-298 18 303 0
-298 45 297 0
-299 14 294 0
-299 19 304 0
-299 46 298 0
-300 15 295 0
-300 20 305 0
-300 47 299 0
-301 16 296 0
-301 50 302 0
-302 17 297 0
-302 51 303 0
-303 18 298 0
-303 52 304 0
-303 51 302 0
-304 19 299 0
-304 52 303 0
-305 20 300 0
-305 53 304 0
-306 21 301 0
-306 56 307 0
-307 22 302 0
-307 57 308 0
-308 23 303 0
-308 58 309 0
-308 57 307 0
-309 24 304 0
-309 58 308 0
-310 25 305 0
-310 59 309 0
c Tipo 4:
-77 -61 286 0
-77 -66 287 0
-77 -71 288 0
-77 -76 289 0
-77 -81 290 0
-77 -62 291 0
-77 -67 292 0
-77 -72 293 0
-77 -77 294 0
-77 -82 295 0
-77 -63 296 0
-77 -68 297 0
-77 -73 298 0
-77 -78 299 0
-77 -83 300 0
-77 -64 301 0
-77 -69 302 0
-77 -74 303 0
-77 -79 304 0
-77 -84 305 0
-77 -65 306 0
-77 -70 307 0
-77 -75 308 0
-77 -80 309 0
-77 -85 310 0
c Tipo 0:
42 -47 0
-42 47 0
c Tipo 1:
10 15 0
10 42 0
10 41 0
15 10 0
15 42 0
10 41 0
42 10 0
42 15 0
42 41 0
41 10 0
41 15 0
41 42 0
c Tipo 2:
42 82 0
-42 -82 0
c Tipo 3:
320 0
-311 32 312 0
-311 6 316 0
-312 33 313 0
-312 7 317 0
-313 34 314 0
-313 8 318 0
-313 33 312 0
-314 9 319 0
-314 34 313 0
-315 10 320 0
-315 35 314 0
-316 38 317 0
-316 11 321 0
-317 39 318 0
-317 12 322 0
-318 40 319 0
-318 13 323 0
-318 39 317 0
-319 14 324 0
-319 40 318 0
-320 15 325 0
-320 41 319 0
-321 11 316 0
-321 44 322 0
-321 16 326 0
-322 12 317 0
-322 45 323 0
-322 17 327 0
-323 13 318 0
-323 46 324 0
-323 18 328 0
-323 45 322 0
-324 14 319 0
-324 19 329 0
-324 46 323 0
-325 15 320 0
-325 20 330 0
-325 47 324 0
-326 16 321 0
-326 50 327 0
-327 17 322 0
-327 51 328 0
-328 18 323 0
-328 52 329 0
-328 51 327 0
-329 19 324 0
-329 52 328 0
-330 20 325 0
-330 53 329 0
-331 21 326 0
-331 56 332 0
-332 22 327 0
-332 57 333 0
-333 23 328 0
-333 58 334 0
-333 57 332 0
-334 24 329 0
-334 58 333 0
-335 25 330 0
-335 59 334 0
c Tipo 4:
-82 -61 311 0
-82 -66 312 0
-82 -71 313 0
-82 -76 314 0
-82 -81 315 0
-82 -62 316 0
-82 -67 317 0
-82 -72 318 0
-82 -77 319 0
-82 -82 320 0
-82 -63 321 0
-82 -68 322 0
-82 -73 323 0
-82 -78 324 0
-82 -83 325 0
-82 -64 326 0
-82 -69 327 0
-82 -74 328 0
-82 -79 329 0
-82 -84 330 0
-82 -65 331 0
-82 -70 332 0
-82 -75 333 0
-82 -80 334 0
-82 -85 335 0
c Tipo 0:
44 -49 0
-44 49 0
c Tipo 0:
11 -17 0
-11 17 0
c Tipo 1:
c Tipo 0:
√Àcnf Àc Tipo 2:
43 63 0
-43 -63 0
c Tipo 3:
346 0
-336 32 337 0
-336 6 341 0
-337 33 338 0
-337 7 342 0
-338 34 339 0
-338 8 343 0
-338 33 337 0
-339 9 344 0
-339 34 338 0
-340 10 345 0
-340 35 339 0
-341 38 342 0
-341 11 346 0
-342 39 343 0
-342 12 347 0
-343 40 344 0
-343 13 348 0
-343 39 342 0
-344 14 349 0
-344 40 343 0
-345 15 350 0
-345 41 344 0
-346 11 341 0
-346 44 347 0
-346 16 351 0
-347 12 342 0
-347 45 348 0
-347 17 352 0
-348 13 343 0
-348 46 349 0
-348 18 353 0
-348 45 347 0
-349 14 344 0
-349 19 354 0
-349 46 348 0
-350 15 345 0
-350 20 355 0
-350 47 349 0
-351 16 346 0
-351 50 352 0
-352 17 347 0
-352 51 353 0
-353 18 348 0
-353 52 354 0
-353 51 352 0
-354 19 349 0
-354 52 353 0
-355 20 350 0
-355 53 354 0
-356 21 351 0
-356 56 357 0
-357 22 352 0
-357 57 358 0
-358 23 353 0
-358 58 359 0
-358 57 357 0
-359 24 354 0
-359 58 358 0
-360 25 355 0
-360 59 359 0
c Tipo 4:
-63 -61 336 0
-63 -66 337 0
-63 -71 338 0
-63 -76 339 0
-63 -81 340 0
-63 -62 341 0
-63 -67 342 0
-63 -72 343 0
-63 -77 344 0
-63 -82 345 0
-63 -63 346 0
-63 -68 347 0
-63 -73 348 0
-63 -78 349 0
-63 -83 350 0
-63 -64 351 0
-63 -69 352 0
-63 -74 353 0
-63 -79 354 0
-63 -84 355 0
-63 -65 356 0
-63 -70 357 0
-63 -75 358 0
-63 -80 359 0
-63 -85 360 0
c Tipo 0:
45 -50 0
-45 50 0
c Tipo 0:
12 -18 0
-12 18 0
c Tipo 1:
c Tipo 2:
68 12 -73 0
68 17 -63 0
68 45 -69 0
68 44 -67 0
-68 -12 0
-68 73 0
-68 -17 0
-68 63 0
-68 -45 0
-68 73 0
-68 -44 0
-68 67 0
-68 -12 73 0
-68 -17 63 0
-68 -45 69 0
-68 -44 67 0
68 12 0
68 -73 0
68 17 0
68 -63 0
68 45 0
68 -73 0
68 44 0
68 -67 0
c Tipo 3:
372 0
-361 32 362 0
-361 6 366 0
-362 33 363 0
-362 7 367 0
-363 34 364 0
-363 8 368 0
-363 33 362 0
-364 9 369 0
-364 34 363 0
-365 10 370 0
-365 35 364 0
-366 38 367 0
-366 11 371 0
-367 39 368 0
-367 12 372 0
-368 40 369 0
-368 13 373 0
-368 39 367 0
-369 14 374 0
-369 40 368 0
-370 15 375 0
-370 41 369 0
-371 11 366 0
-371 44 372 0
-371 16 376 0
-372 12 367 0
-372 45 373 0
-372 17 377 0
-373 13 368 0
-373 46 374 0
-373 18 378 0
-373 45 372 0
-374 14 369 0
-374 19 379 0
-374 46 373 0
-375 15 370 0
-375 20 380 0
-375 47 374 0
-376 16 371 0
-376 50 377 0
-377 17 372 0
-377 51 378 0
-378 18 373 0
-378 52 379 0
-378 51 377 0
-379 19 374 0
-379 52 378 0
-380 20 375 0
-380 53 379 0
-381 21 376 0
-381 56 382 0
-382 22 377 0
-382 57 383 0
-383 23 378 0
-383 58 384 0
-383 57 382 0
-384 24 379 0
-384 58 383 0
-385 25 380 0
-385 59 384 0
c Tipo 4:
-68 -61 361 0
-68 -66 362 0
-68 -71 363 0
-68 -76 364 0
-68 -81 365 0
-68 -62 366 0
-68 -67 367 0
-68 -72 368 0
-68 -77 369 0
-68 -82 370 0
-68 -63 371 0
-68 -68 372 0
-68 -73 373 0
-68 -78 374 0
-68 -83 375 0
-68 -64 376 0
-68 -69 377 0
-68 -74 378 0
-68 -79 379 0
-68 -84 380 0
-68 -65 381 0
-68 -70 382 0
-68 -75 383 0
-68 -80 384 0
-68 -85 385 0
c Tipo 0:
46 -51 0
-46 51 0
c Tipo 0:
13 -19 0
-13 19 0
c Tipo 1:
c Tipo 2:
73 13 -78 0
73 18 -68 0
73 46 -74 0
73 45 -72 0
-73 -13 0
-73 78 0
-73 -18 0
-73 68 0
-73 -46 0
-73 78 0
-73 -45 0
-73 72 0
-73 -13 78 0
-73 -18 68 0
-73 -46 74 0
-73 -45 72 0
73 13 0
73 -78 0
73 18 0
73 -68 0
73 46 0
73 -78 0
73 45 0
73 -72 0
c Tipo 3:
398 0
-386 32 387 0
-386 6 391 0
-387 33 388 0
-387 7 392 0
-388 34 389 0
-388 8 393 0
-388 33 387 0
-389 9 394 0
-389 34 388 0
-390 10 395 0
-390 35 389 0
-391 38 392 0
-391 11 396 0
-392 39 393 0
-392 12 397 0
-393 40 394 0
-393 13 398 0
-393 39 392 0
-394 14 399 0
-394 40 393 0
-395 15 400 0
-395 41 394 0
-396 11 391 0
-396 44 397 0
-396 16 401 0
-397 12 392 0
-397 45 398 0
-397 17 402 0
-398 13 393 0
-398 46 399 0
-398 18 403 0
-398 45 397 0
-399 14 394 0
-399 19 404 0
-399 46 398 0
-400 15 395 0
-400 20 405 0
-400 47 399 0
-401 16 396 0
-401 50 402 0
-402 17 397 0
-402 51 403 0
-403 18 398 0
-403 52 404 0
-403 51 402 0
-404 19 399 0
-404 52 403 0
-405 20 400 0
-405 53 404 0
-406 21 401 0
-406 56 407 0
-407 22 402 0
-407 57 408 0
-408 23 403 0
-408 58 409 0
-408 57 407 0
-409 24 404 0
-409 58 408 0
-410 25 405 0
-410 59 409 0
c Tipo 4:
-73 -61 386 0
-73 -66 387 0
-73 -71 388 0
-73 -76 389 0
-73 -81 390 0
-73 -62 391 0
-73 -67 392 0
-73 -72 393 0
-73 -77 394 0
-73 -82 395 0
-73 -63 396 0
-73 -68 397 0
-73 -73 398 0
-73 -78 399 0
-73 -83 400 0
-73 -64 401 0
-73 -69 402 0
-73 -74 403 0
-73 -79 404 0
-73 -84 405 0
-73 -65 406 0
-73 -70 407 0
-73 -75 408 0
-73 -80 409 0
-73 -85 410 0
c Tipo 0:
47 -52 0
-47 52 0
c Tipo 0:
14 -20 0
-14 20 0
c Tipo 1:
14 19 47 46 0
-14 -19 0
-14 -47 0
-14 -46 0
-47 -19 0
-47 -46 0
-19 -46 0
c Tipo 2:
78 14 -83 0
78 19 -73 0
78 47 -79 0
78 46 -77 0
-78 -14 0
-78 83 0
-78 -19 0
-78 73 0
-78 -47 0
-78 83 0
-78 -46 0
-78 77 0
-78 -14 83 0
-78 -19 73 0
-78 -47 79 0
-78 -46 77 0
78 14 0
78 -83 0
78 19 0
78 -73 0
78 47 0
78 -83 0
78 46 0
78 -77 0
c Tipo 3:
424 0
-411 32 412 0
-411 6 416 0
-412 33 413 0
-412 7 417 0
-413 34 414 0
-413 8 418 0
-413 33 412 0
-414 9 419 0
-414 34 413 0
-415 10 420 0
-415 35 414 0
-416 38 417 0
-416 11 421 0
-417 39 418 0
-417 12 422 0
-418 40 419 0
-418 13 423 0
-418 39 417 0
-419 14 424 0
-419 40 418 0
-420 15 425 0
-420 41 419 0
-421 11 416 0
-421 44 422 0
-421 16 426 0
-422 12 417 0
-422 45 423 0
-422 17 427 0
-423 13 418 0
-423 46 424 0
-423 18 428 0
-423 45 422 0
-424 14 419 0
-424 19 429 0
-424 46 423 0
-425 15 420 0
-425 20 430 0
-425 47 424 0
-426 16 421 0
-426 50 427 0
-427 17 422 0
-427 51 428 0
-428 18 423 0
-428 52 429 0
-428 51 427 0
-429 19 424 0
-429 52 428 0
-430 20 425 0
-430 53 429 0
-431 21 426 0
-431 56 432 0
-432 22 427 0
-432 57 433 0
-433 23 428 0
-433 58 434 0
-433 57 432 0
-434 24 429 0
-434 58 433 0
-435 25 430 0
-435 59 434 0
c Tipo 4:
-78 -61 411 0
-78 -66 412 0
-78 -71 413 0
-78 -76 414 0
-78 -81 415 0
-78 -62 416 0
-78 -67 417 0
-78 -72 418 0
-78 -77 419 0
-78 -82 420 0
-78 -63 421 0
-78 -68 422 0
-78 -73 423 0
-78 -78 424 0
-78 -83 425 0
-78 -64 426 0
-78 -69 427 0
-78 -74 428 0
-78 -79 429 0
-78 -84 430 0
-78 -65 431 0
-78 -70 432 0
-78 -75 433 0
-78 -80 434 0
-78 -85 435 0
c Tipo 0:
48 -53 0
-48 53 0
c Tipo 1:
c Tipo 2:
48 83 0
-48 -83 0
c Tipo 3:
450 0
-436 32 437 0
-436 6 441 0
-437 33 438 0
-437 7 442 0
-438 34 439 0
-438 8 443 0
-438 33 437 0
-439 9 444 0
-439 34 438 0
-440 10 445 0
-440 35 439 0
-441 38 442 0
-441 11 446 0
-442 39 443 0
-442 12 447 0
-443 40 444 0
-443 13 448 0
-443 39 442 0
-444 14 449 0
-444 40 443 0
-445 15 450 0
-445 41 444 0
-446 11 441 0
-446 44 447 0
-446 16 451 0
-447 12 442 0
-447 45 448 0
-447 17 452 0
-448 13 443 0
-448 46 449 0
-448 18 453 0
-448 45 447 0
-449 14 444 0
-449 19 454 0
-449 46 448 0
-450 15 445 0
-450 20 455 0
-450 47 449 0
-451 16 446 0
-451 50 452 0
-452 17 447 0
-452 51 453 0
-453 18 448 0
-453 52 454 0
-453 51 452 0
-454 19 449 0
-454 52 453 0
-455 20 450 0
-455 53 454 0
-456 21 451 0
-456 56 457 0
-457 22 452 0
-457 57 458 0
-458 23 453 0
-458 58 459 0
-458 57 457 0
-459 24 454 0
-459 58 458 0
-460 25 455 0
-460 59 459 0
c Tipo 4:
-83 -61 436 0
-83 -66 437 0
-83 -71 438 0
-83 -76 439 0
-83 -81 440 0
-83 -62 441 0
-83 -67 442 0
-83 -72 443 0
-83 -77 444 0
-83 -82 445 0
-83 -63 446 0
-83 -68 447 0
-83 -73 448 0
-83 -78 449 0
-83 -83 450 0
-83 -64 451 0
-83 -69 452 0
-83 -74 453 0
-83 -79 454 0
-83 -84 455 0
-83 -65 456 0
-83 -70 457 0
-83 -75 458 0
-83 -80 459 0
-83 -85 460 0
c Tipo 0:
50 -55 0
-50 55 0
c Tipo 0:
16 -22 0
-16 22 0
c Tipo 1:
16 50 21 0
16 50 49 0
16 21 50 0
16 21 49 0
16 49 21 0
16 49 50 0
50 21 16 0
50 21 49 0
50 49 16 0
50 49 21 0
21 49 16 0
21 49 50 0
c Tipo 2:
49 64 0
-49 -64 0
c Tipo 3:
476 0
-461 32 462 0
-461 6 466 0
-462 33 463 0
-462 7 467 0
-463 34 464 0
-463 8 468 0
-463 33 462 0
-464 9 469 0
-464 34 463 0
-465 10 470 0
-465 35 464 0
-466 38 467 0
-466 11 471 0
-467 39 468 0
-467 12 472 0
-468 40 469 0
-468 13 473 0
-468 39 467 0
-469 14 474 0
-469 40 468 0
-470 15 475 0
-470 41 469 0
-471 11 466 0
-471 44 472 0
-471 16 476 0
-472 12 467 0
-472 45 473 0
-472 17 477 0
-473 13 468 0
-473 46 474 0
-473 18 478 0
-473 45 472 0
-474 14 469 0
-474 19 479 0
-474 46 473 0
-475 15 470 0
-475 20 480 0
-475 47 474 0
-476 16 471 0
-476 50 477 0
-477 17 472 0
-477 51 478 0
-478 18 473 0
-478 52 479 0
-478 51 477 0
-479 19 474 0
-479 52 478 0
-480 20 475 0
-480 53 479 0
-481 21 476 0
-481 56 482 0
-482 22 477 0
-482 57 483 0
-483 23 478 0
-483 58 484 0
-483 57 482 0
-484 24 479 0
-484 58 483 0
-485 25 480 0
-485 59 484 0
c Tipo 4:
-64 -61 461 0
-64 -66 462 0
-64 -71 463 0
-64 -76 464 0
-64 -81 465 0
-64 -62 466 0
-64 -67 467 0
-64 -72 468 0
-64 -77 469 0
-64 -82 470 0
-64 -63 471 0
-64 -68 472 0
-64 -73 473 0
-64 -78 474 0
-64 -83 475 0
-64 -64 476 0
-64 -69 477 0
-64 -74 478 0
-64 -79 479 0
-64 -84 480 0
-64 -65 481 0
-64 -70 482 0
-64 -75 483 0
-64 -80 484 0
-64 -85 485 0
c Tipo 0:
51 -56 0
-51 56 0
c Tipo 0:
17 -23 0
-17 23 0
c Tipo 1:
c Tipo 2:
69 17 -74 0
69 22 -64 0
69 51 -70 0
69 50 -68 0
-69 -17 0
-69 74 0
-69 -22 0
-69 64 0
-69 -51 0
-69 74 0
-69 -50 0
-69 68 0
-69 -17 74 0
-69 -22 64 0
-69 -51 70 0
-69 -50 68 0
69 17 0
69 -74 0
69 22 0
69 -64 0
69 51 0
69 -74 0
69 50 0
69 -68 0
c Tipo 3:
502 0
-486 32 487 0
-486 6 491 0
-487 33 488 0
-487 7 492 0
-488 34 489 0
-488 8 493 0
-488 33 487 0
-489 9 494 0
-489 34 488 0
-490 10 495 0
-490 35 489 0
-491 38 492 0
-491 11 496 0
-492 39 493 0
-492 12 497 0
-493 40 494 0
-493 13 498 0
-493 39 492 0
-494 14 499 0
-494 40 493 0
-495 15 500 0
-495 41 494 0
-496 11 491 0
-496 44 497 0
-496 16 501 0
-497 12 492 0
-497 45 498 0
-497 17 502 0
-498 13 493 0
-498 46 499 0
-498 18 503 0
-498 45 497 0
-499 14 494 0
-499 19 504 0
-499 46 498 0
-500 15 495 0
-500 20 505 0
-500 47 499 0
-501 16 496 0
-501 50 502 0
-502 17 497 0
-502 51 503 0
-503 18 498 0
-503 52 504 0
-503 51 502 0
-504 19 499 0
-504 52 503 0
-505 20 500 0
-505 53 504 0
-506 21 501 0
-506 56 507 0
-507 22 502 0
-507 57 508 0
-508 23 503 0
-508 58 509 0
-508 57 507 0
-509 24 504 0
-509 58 508 0
-510 25 505 0
-510 59 509 0
c Tipo 4:
-69 -61 486 0
-69 -66 487 0
-69 -71 488 0
-69 -76 489 0
-69 -81 490 0
-69 -62 491 0
-69 -67 492 0
-69 -72 493 0
-69 -77 494 0
-69 -82 495 0
-69 -63 496 0
-69 -68 497 0
-69 -73 498 0
-69 -78 499 0
-69 -83 500 0
-69 -64 501 0
-69 -69 502 0
-69 -74 503 0
-69 -79 504 0
-69 -84 505 0
-69 -65 506 0
-69 -70 507 0
-69 -75 508 0
-69 -80 509 0
-69 -85 510 0
c Tipo 0:
52 -57 0
-52 57 0
c Tipo 0:
18 -24 0
-18 24 0
c Tipo 1:
18 52 23 0
18 52 51 0
18 23 52 0
18 23 51 0
18 51 23 0
18 51 52 0
52 23 18 0
52 23 51 0
52 51 18 0
52 51 23 0
23 51 18 0
23 51 52 0
c Tipo 2:
74 18 -79 0
74 23 -69 0
74 52 -75 0
74 51 -73 0
-74 -18 0
-74 79 0
-74 -23 0
-74 69 0
-74 -52 0
-74 79 0
-74 -51 0
-74 73 0
-74 -18 79 0
-74 -23 69 0
-74 -52 75 0
-74 -51 73 0
74 18 0
74 -79 0
74 23 0
74 -69 0
74 52 0
74 -79 0
74 51 0
74 -73 0
c Tipo 3:
528 0
-511 32 512 0
-511 6 516 0
-512 33 513 0
-512 7 517 0
-513 34 514 0
-513 8 518 0
-513 33 512 0
-514 9 519 0
-514 34 513 0
-515 10 520 0
-515 35 514 0
-516 38 517 0
-516 11 521 0
-517 39 518 0
-517 12 522 0
-518 40 519 0
-518 13 523 0
-518 39 517 0
-519 14 524 0
-519 40 518 0
-520 15 525 0
-520 41 519 0
-521 11 516 0
-521 44 522 0
-521 16 526 0
-522 12 517 0
-522 45 523 0
-522 17 527 0
-523 13 518 0
-523 46 524 0
-523 18 528 0
-523 45 522 0
-524 14 519 0
-524 19 529 0
-524 46 523 0
-525 15 520 0
-525 20 530 0
-525 47 524 0
-526 16 521 0
-526 50 527 0
-527 17 522 0
-527 51 528 0
-528 18 523 0
-528 52 529 0
-528 51 527 0
-529 19 524 0
-529 52 528 0
-530 20 525 0
-530 53 529 0
-531 21 526 0
-531 56 532 0
-532 22 527 0
-532 57 533 0
-533 23 528 0
-533 58 534 0
-533 57 532 0
-534 24 529 0
-534 58 533 0
-535 25 530 0
-535 59 534 0
c Tipo 4:
-74 -61 511 0
-74 -66 512 0
-74 -71 513 0
-74 -76 514 0
-74 -81 515 0
-74 -62 516 0
-74 -67 517 0
-74 -72 518 0
-74 -77 519 0
-74 -82 520 0
-74 -63 521 0
-74 -68 522 0
-74 -73 523 0
-74 -78 524 0
-74 -83 525 0
-74 -64 526 0
-74 -69 527 0
-74 -74 528 0
-74 -79 529 0
-74 -84 530 0
-74 -65 531 0
-74 -70 532 0
-74 -75 533 0
-74 -80 534 0
-74 -85 535 0
c Tipo 0:
53 -58 0
-53 58 0
c Tipo 0:
19 -25 0
-19 25 0
c Tipo 1:
c Tipo 2:
79 19 -84 0
79 24 -74 0
79 53 -80 0
79 52 -78 0
-79 -19 0
-79 84 0
-79 -24 0
-79 74 0
-79 -53 0
-79 84 0
-79 -52 0
-79 78 0
-79 -19 84 0
-79 -24 74 0
-79 -53 80 0
-79 -52 78 0
79 19 0
79 -84 0
79 24 0
79 -74 0
79 53 0
79 -84 0
79 52 0
79 -78 0
c Tipo 3:
554 0
-536 32 537 0
-536 6 541 0
-537 33 538 0
-537 7 542 0
-538 34 539 0
-538 8 543 0
-538 33 537 0
-539 9 544 0
-539 34 538 0
-540 10 545 0
-540 35 539 0
-541 38 542 0
-541 11 546 0
-542 39 543 0
-542 12 547 0
-543 40 544 0
-543 13 548 0
-543 39 542 0
-544 14 549 0
-544 40 543 0
-545 15 550 0
-545 41 544 0
-546 11 541 0
-546 44 547 0
-546 16 551 0
-547 12 542 0
-547 45 548 0
-547 17 552 0
-548 13 543 0
-548 46 549 0
-548 18 553 0
-548 45 547 0
-549 14 544 0
-549 19 554 0
-549 46 548 0
-550 15 545 0
-550 20 555 0
-550 47 549 0
-551 16 546 0
-551 50 552 0
-552 17 547 0
-552 51 553 0
-553 18 548 0
-553 52 554 0
-553 51 552 0
-554 19 549 0
-554 52 553 0
-555 20 550 0
-555 53 554 0
-556 21 551 0
-556 56 557 0
-557 22 552 0
-557 57 558 0
-558 23 553 0
-558 58 559 0
-558 57 557 0
-559 24 554 0
-559 58 558 0
-560 25 555 0
-560 59 559 0
c Tipo 4:
-79 -61 536 0
-79 -66 537 0
-79 -71 538 0
-79 -76 539 0
-79 -81 540 0
-79 -62 541 0
-79 -67 542 0
-79 -72 543 0
-79 -77 544 0
-79 -82 545 0
-79 -63 546 0
-79 -68 547 0
-79 -73 548 0
-79 -78 549 0
-79 -83 550 0
-79 -64 551 0
-79 -69 552 0
-79 -74 553 0
-79 -79 554 0
-79 -84 555 0
-79 -65 556 0
-79 -70 557 0
-79 -75 558 0
-79 -80 559 0
-79 -85 560 0
c Tipo 0:
54 -59 0
-54 59 0
c Tipo 1:
c Tipo 2:
54 84 0
-54 -84 0
c Tipo 3:
580 0
-561 32 562 0
-561 6 566 0
-562 33 563 0
-562 7 567 0
-563 34 564 0
-563 8 568 0
-563 33 562 0
-564 9 569 0
-564 34 563 0
-565 10 570 0
-565 35 564 0
-566 38 567 0
-566 11 571 0
-567 39 568 0
-567 12 572 0
-568 40 569 0
-568 13 573 0
-568 39 567 0
-569 14 574 0
-569 40 568 0
-570 15 575 0
-570 41 569 0
-571 11 566 0
-571 44 572 0
-571 16 576 0
-572 12 567 0
-572 45 573 0
-572 17 577 0
-573 13 568 0
-573 46 574 0
-573 18 578 0
-573 45 572 0
-574 14 569 0
-574 19 579 0
-574 46 573 0
-575 15 570 0
-575 20 580 0
-575 47 574 0
-576 16 571 0
-576 50 577 0
-577 17 572 0
-577 51 578 0
-578 18 573 0
-578 52 579 0
-578 51 577 0
-579 19 574 0
-579 52 578 0
-580 20 575 0
-580 53 579 0
-581 21 576 0
-581 56 582 0
-582 22 577 0
-582 57 583 0
-583 23 578 0
-583 58 584 0
-583 57 582 0
-584 24 579 0
-584 58 583 0
-585 25 580 0
-585 59 584 0
c Tipo 4:
-84 -61 561 0
-84 -66 562 0
-84 -71 563 0
-84 -76 564 0
-84 -81 565 0
-84 -62 566 0
-84 -67 567 0
-84 -72 568 0
-84 -77 569 0
-84 -82 570 0
-84 -63 571 0
-84 -68 572 0
-84 -73 573 0
-84 -78 574 0
-84 -83 575 0
-84 -64 576 0
-84 -69 577 0
-84 -74 578 0
-84 -79 579 0
-84 -84 580 0
-84 -65 581 0
-84 -70 582 0
-84 -75 583 0
-84 -80 584 0
-84 -85 585 0
c Tipo 0:
21 -27 0
-21 27 0
c Tipo 1:
c Tipo 2:
26 65 0
-21 -65 0
c Tipo 3:
606 0
-586 32 587 0
-586 6 591 0
-587 33 588 0
-587 7 592 0
-588 34 589 0
-588 8 593 0
-588 33 587 0
-589 9 594 0
-589 34 588 0
-590 10 595 0
-590 35 589 0
-591 38 592 0
-591 11 596 0
-592 39 593 0
-592 12 597 0
-593 40 594 0
-593 13 598 0
-593 39 592 0
-594 14 599 0
-594 40 593 0
-595 15 600 0
-595 41 594 0
-596 11 591 0
-596 44 597 0
-596 16 601 0
-597 12 592 0
-597 45 598 0
-597 17 602 0
-598 13 593 0
-598 46 599 0
-598 18 603 0
-598 45 597 0
-599 14 594 0
-599 19 604 0
-599 46 598 0
-600 15 595 0
-600 20 605 0
-600 47 599 0
-601 16 596 0
-601 50 602 0
-602 17 597 0
-602 51 603 0
-603 18 598 0
-603 52 604 0
-603 51 602 0
-604 19 599 0
-604 52 603 0
-605 20 600 0
-605 53 604 0
-606 21 601 0
-606 56 607 0
-607 22 602 0
-607 57 608 0
-608 23 603 0
-608 58 609 0
-608 57 607 0
-609 24 604 0
-609 58 608 0
-610 25 605 0
-610 59 609 0
c Tipo 4:
-65 -61 586 0
-65 -66 587 0
-65 -71 588 0
-65 -76 589 0
-65 -81 590 0
-65 -62 591 0
-65 -67 592 0
-65 -72 593 0
-65 -77 594 0
-65 -82 595 0
-65 -63 596 0
-65 -68 597 0
-65 -73 598 0
-65 -78 599 0
-65 -83 600 0
-65 -64 601 0
-65 -69 602 0
-65 -74 603 0
-65 -79 604 0
-65 -84 605 0
-65 -65 606 0
-65 -70 607 0
-65 -75 608 0
-65 -80 609 0
-65 -85 610 0
c Tipo 0:
22 -28 0
-22 28 0
c Tipo 1:
22 57 27 0
22 57 56 0
22 27 57 0
22 27 56 0
22 56 27 0
22 56 57 0
57 27 22 0
57 27 56 0
57 56 22 0
57 56 27 0
27 56 22 0
27 56 57 0
c Tipo 2:
27 70 0
-22 -70 0
c Tipo 3:
632 0
-611 32 612 0
-611 6 616 0
-612 33 613 0
-612 7 617 0
-613 34 614 0
-613 8 618 0
-613 33 612 0
-614 9 619 0
-614 34 613 0
-615 10 620 0
-615 35 614 0
-616 38 617 0
-616 11 621 0
-617 39 618 0
-617 12 622 0
-618 40 619 0
-618 13 623 0
-618 39 617 0
-619 14 624 0
-619 40 618 0
-620 15 625 0
-620 41 619 0
-621 11 616 0
-621 44 622 0
-621 16 626 0
-622 12 617 0
-622 45 623 0
-622 17 627 0
-623 13 618 0
-623 46 624 0
-623 18 628 0
-623 45 622 0
-624 14 619 0
-624 19 629 0
-624 46 623 0
-625 15 620 0
-625 20 630 0
-625 47 624 0
-626 16 621 0
-626 50 627 0
-627 17 622 0
-627 51 628 0
-628 18 623 0
-628 52 629 0
-628 51 627 0
-629 19 624 0
-629 52 628 0
-630 20 625 0
-630 53 629 0
-631 21 626 0
-631 56 632 0
-632 22 627 0
-632 57 633 0
-633 23 628 0
-633 58 634 0
-633 57 632 0
-634 24 629 0
-634 58 633 0
-635 25 630 0
-635 59 634 0
c Tipo 4:
-70 -61 611 0
-70 -66 612 0
-70 -71 613 0
-70 -76 614 0
-70 -81 615 0
-70 -62 616 0
-70 -67 617 0
-70 -72 618 0
-70 -77 619 0
-70 -82 620 0
-70 -63 621 0
-70 -68 622 0
-70 -73 623 0
-70 -78 624 0
-70 -83 625 0
-70 -64 626 0
-70 -69 627 0
-70 -74 628 0
-70 -79 629 0
-70 -84 630 0
-70 -65 631 0
-70 -70 632 0
-70 -75 633 0
-70 -80 634 0
-70 -85 635 0
c Tipo 0:
23 -29 0
-23 29 0
c Tipo 1:
23 28 0
23 58 0
23 57 0
28 23 0
28 58 0
23 57 0
58 23 0
58 28 0
58 57 0
57 23 0
57 28 0
57 58 0
c Tipo 2:
28 75 0
-23 -75 0
c Tipo 3:
658 0
-636 32 637 0
-636 6 641 0
-637 33 638 0
-637 7 642 0
-638 34 639 0
-638 8 643 0
-638 33 637 0
-639 9 644 0
-639 34 638 0
-640 10 645 0
-640 35 639 0
-641 38 642 0
-641 11 646 0
-642 39 643 0
-642 12 647 0
-643 40 644 0
-643 13 648 0
-643 39 642 0
-644 14 649 0
-644 40 643 0
-645 15 650 0
-645 41 644 0
-646 11 641 0
-646 44 647 0
-646 16 651 0
-647 12 642 0
-647 45 648 0
-647 17 652 0
-648 13 643 0
-648 46 649 0
-648 18 653 0
-648 45 647 0
-649 14 644 0
-649 19 654 0
-649 46 648 0
-650 15 645 0
-650 20 655 0
-650 47 649 0
-651 16 646 0
-651 50 652 0
-652 17 647 0
-652 51 653 0
-653 18 648 0
-653 52 654 0
-653 51 652 0
-654 19 649 0
-654 52 653 0
-655 20 650 0
-655 53 654 0
-656 21 651 0
-656 56 657 0
-657 22 652 0
-657 57 658 0
-658 23 653 0
-658 58 659 0
-658 57 657 0
-659 24 654 0
-659 58 658 0
-660 25 655 0
-660 59 659 0
c Tipo 4:
-75 -61 636 0
-75 -66 637 0
-75 -71 638 0
-75 -76 639 0
-75 -81 640 0
-75 -62 641 0
-75 -67 642 0
-75 -72 643 0
-75 -77 644 0
-75 -82 645 0
-75 -63 646 0
-75 -68 647 0
-75 -73 648 0
-75 -78 649 0
-75 -83 650 0
-75 -64 651 0
-75 -69 652 0
-75 -74 653 0
-75 -79 654 0
-75 -84 655 0
-75 -65 656 0
-75 -70 657 0
-75 -75 658 0
-75 -80 659 0
-75 -85 660 0
c Tipo 0:
24 -30 0
-24 30 0
c Tipo 1:
24 59 29 0
24 59 58 0
24 29 59 0
24 29 58 0
24 58 29 0
24 58 59 0
59 29 24 0
59 29 58 0
59 58 24 0
59 58 29 0
29 58 24 0
29 58 59 0
c Tipo 2:
29 80 0
-24 -80 0
c Tipo 3:
684 0
-661 32 662 0
-661 6 666 0
-662 33 663 0
-662 7 667 0
-663 34 664 0
-663 8 668 0
-663 33 662 0
-664 9 669 0
-664 34 663 0
-665 10 670 0
-665 35 664 0
-666 38 667 0
-666 11 671 0
-667 39 668 0
-667 12 672 0
-668 40 669 0
-668 13 673 0
-668 39 667 0
-669 14 674 0
-669 40 668 0
-670 15 675 0
-670 41 669 0
-671 11 666 0
-671 44 672 0
-671 16 676 0
-672 12 667 0
-672 45 673 0
-672 17 677 0
-673 13 668 0
-673 46 674 0
-673 18 678 0
-673 45 672 0
-674 14 669 0
-674 19 679 0
-674 46 673 0
-675 15 670 0
-675 20 680 0
-675 47 674 0
-676 16 671 0
-676 50 677 0
-677 17 672 0
-677 51 678 0
-678 18 673 0
-678 52 679 0
-678 51 677 0
-679 19 674 0
-679 52 678 0
-680 20 675 0
-680 53 679 0
-681 21 676 0
-681 56 682 0
-682 22 677 0
-682 57 683 0
-683 23 678 0
-683 58 684 0
-683 57 682 0
-684 24 679 0
-684 58 683 0
-685 25 680 0
-685 59 684 0
c Tipo 4:
-80 -61 661 0
-80 -66 662 0
-80 -71 663 0
-80 -76 664 0
-80 -81 665 0
-80 -62 666 0
-80 -67 667 0
-80 -72 668 0
-80 -77 669 0
-80 -82 670 0
-80 -63 671 0
-80 -68 672 0
-80 -73 673 0
-80 -78 674 0
-80 -83 675 0
-80 -64 676 0
-80 -69 677 0
-80 -74 678 0
-80 -79 679 0
-80 -84 680 0
-80 -65 681 0
-80 -70 682 0
-80 -75 683 0
-80 -80 684 0
-80 -85 685 0
c Tipo 1:
25 30 0
25 60 0
25 59 0
30 25 0
30 60 0
25 59 0
60 25 0
60 30 0
60 59 0
59 25 0
59 30 0
59 60 0
c Tipo 2:
30 85 0
-25 -85 0
c Tipo 3:
710 0
-686 32 687 0
-686 6 691 0
-687 33 688 0
-687 7 692 0
-688 34 689 0
-688 8 693 0
-688 33 687 0
-689 9 694 0
-689 34 688 0
-690 10 695 0
-690 35 689 0
-691 38 692 0
-691 11 696 0
-692 39 693 0
-692 12 697 0
-693 40 694 0
-693 13 698 0
-693 39 692 0
-694 14 699 0
-694 40 693 0
-695 15 700 0
-695 41 694 0
-696 11 691 0
-696 44 697 0
-696 16 701 0
-697 12 692 0
-697 45 698 0
-697 17 702 0
-698 13 693 0
-698 46 699 0
-698 18 703 0
-698 45 697 0
-699 14 694 0
-699 19 704 0
-699 46 698 0
-700 15 695 0
-700 20 705 0
-700 47 699 0
-701 16 696 0
-701 50 702 0
-702 17 697 0
-702 51 703 0
-703 18 698 0
-703 52 704 0
-703 51 702 0
-704 19 699 0
-704 52 703 0
-705 20 700 0
-705 53 704 0
-706 21 701 0
-706 56 707 0
-707 22 702 0
-707 57 708 0
-708 23 703 0
-708 58 709 0
-708 57 707 0
-709 24 704 0
-709 58 708 0
-710 25 705 0
-710 59 709 0
c Tipo 4:
-85 -61 686 0
-85 -66 687 0
-85 -71 688 0
-85 -76 689 0
-85 -81 690 0
-85 -62 691 0
-85 -67 692 0
-85 -72 693 0
-85 -77 694 0
-85 -82 695 0
-85 -63 696 0
-85 -68 697 0
-85 -73 698 0
-85 -78 699 0
-85 -83 700 0
-85 -64 701 0
-85 -69 702 0
-85 -74 703 0
-85 -79 704 0
-85 -84 705 0
-85 -65 706 0
-85 -70 707 0
-85 -75 708 0
-85 -80 709 0
-85 -85 710 0
